\ This file has been generated by DOcplex
\ ENCODING=ISO-8859-1
\Problem name: Problema 4.3

Maximize
 obj: 59 x_1_1 + 57 x_1_2 + 53 x_1_3 + 54 x_1_4 + 58 x_2_1 + 54 x_2_2 + 54 x_2_3
      + 56 x_2_4 + 62 x_3_1 + 55 x_3_2 + 55 x_3_3 + 58 x_3_4 -1930
Subject To
 c1: x_1_1 + x_2_1 + x_3_1 = 9
 c2: x_1_2 + x_2_2 + x_3_2 = 5
 c3: x_1_3 + x_2_3 + x_3_3 = 8
 c4: x_1_4 + x_2_4 + x_3_4 = 17
 c5: x_1_1 + x_1_2 + x_1_3 + x_1_4 = 17
 c6: x_2_1 + x_2_2 + x_2_3 + x_2_4 = 12
 c7: x_3_1 + x_3_2 + x_3_3 + x_3_4 = 10

Bounds
End
